ilp_joint/output/pollination_ilp.lp
Maximize
  2.0134613965454689e-04 Z_434_0_0 + 0.00241963616905175 Z_434_0_1
   + 0.741030673369768 Z_434_0_2 + 0.00383779095238834 Z_434_0_3
   + 0.1525105533691374 Z_434_0_4
Subject To
 constraint1_4340: Z_434_0_0 + Z_434_0_1 + Z_434_0_2 + Z_434_0_3
   + Z_434_0_4 <= 1
 constraint2_4340: Z_434_0_0 <= 1
 constraint2_4341: Z_434_0_1 <= 1
 constraint2_4342: Z_434_0_2 <= 1
 constraint2_4343: Z_434_0_3 <= 1
Bounds
Binaries
 Z_434_0_0 Z_434_0_1 Z_434_0_2 Z_434_0_3 Z_434_0_4
End
