ilp_joint/output/pollination_ilp.mps
NAME pollination_srl_ilp
* Max problem is converted into Min one
ROWS
 N  OBJ
 L  constraint1_4340
 L  constraint2_4340
 L  constraint2_4341
 L  constraint2_4342
 L  constraint2_4343
COLUMNS
    MARKER    'MARKER'                 'INTORG'
    Z_434_0_0  OBJ       -1.2040927190334449e-03
    Z_434_0_0  constraint1_4340  1
    Z_434_0_0  constraint2_4340  1
    Z_434_0_1  OBJ       -9.5219906017923184e-03
    Z_434_0_1  constraint1_4340  1
    Z_434_0_1  constraint2_4341  1
    Z_434_0_2  OBJ       -8.4739229480093647e-01
    Z_434_0_2  constraint1_4340  1
    Z_434_0_2  constraint2_4342  1
    Z_434_0_3  OBJ       -2.4227739877723285e-02
    Z_434_0_3  constraint1_4340  1
    Z_434_0_3  constraint2_4343  1
    MARKER    'MARKER'                 'INTEND'
RHS
    RHS1      constraint1_4340  1
    RHS1      constraint2_4340  1
    RHS1      constraint2_4341  1
    RHS1      constraint2_4342  1
    RHS1      constraint2_4343  1
BOUNDS
 UP BND1      Z_434_0_0  1
 UP BND1      Z_434_0_1  1
 UP BND1      Z_434_0_2  1
 UP BND1      Z_434_0_3  1
ENDATA
