ilp_joint/output/pollination_ilp.sol
# Solution for model pollination_srl_ilp
# Objective value = 7.4103067336976802e-01
Z_434_0_0 0
Z_434_0_1 0
Z_434_0_2 1
Z_434_0_3 0
Z_434_0_4 0
